db/data/177471953556332139012164108831190230955.z3.out
sat
-------------------
119.806662567
